instances/in_40_20_10_3.dzn
n = 40;
k = 20;
h = 10;
tiles = array2d(1..n, 1..2,
[ 8,2
, 6,11
, 20,6
, 3,1
, 7,12
, 3,20
, 13,7
, 13,19
, 6,6
, 15,4
, 6,12
, 16,7
, 19,17
, 16,4
, 17,15
, 2,16
, 3,1
, 2,16
, 11,5
, 2,8
, 3,20
, 6,9
, 5,12
, 4,16
, 10,15
, 2,7
, 13,7
, 13,10
, 7,18
, 10,8
, 4,1
, 7,16
, 11,19
, 2,13
, 11,20
, 16,19
, 2,16
, 17,11
, 12,1
, 2,7
]);