instances/in_40_20_10_3.lp
#const n = 40.
#const k = 20.
#const h = 10.
tile(1,8,2).
tile(2,6,11).
tile(3,20,6).
tile(4,3,1).
tile(5,7,12).
tile(6,3,20).
tile(7,13,7).
tile(8,13,19).
tile(9,6,6).
tile(10,15,4).
tile(11,6,12).
tile(12,16,7).
tile(13,19,17).
tile(14,16,4).
tile(15,17,15).
tile(16,2,16).
tile(17,3,1).
tile(18,2,16).
tile(19,11,5).
tile(20,2,8).
tile(21,3,20).
tile(22,6,9).
tile(23,5,12).
tile(24,4,16).
tile(25,10,15).
tile(26,2,7).
tile(27,13,7).
tile(28,13,10).
tile(29,7,18).
tile(30,10,8).
tile(31,4,1).
tile(32,7,16).
tile(33,11,19).
tile(34,2,13).
tile(35,11,20).
tile(36,16,19).
tile(37,2,16).
tile(38,17,11).
tile(39,12,1).
tile(40,2,7).
